seed= 2052018 ;
N= 14 ;
M= 2 ;
F= 2 ;
K= 4 ;
T= 36 ;

p=[ 10 10 10 10 10 10 10 2 2 2 2 2 2 2 ];
r=[ 1 4 1 3 5 3 0 4 2 0 3 0 4 3 ];
d=[ 8 1 5 10 14 11 5 12 11 0 0 2 4 12 ];
s=[ 1 1 1 1 1 1 1 1 1 1 1 1 1 1 ];
w=[ 5 5 5 3 3 5 4 2 4 4 2 2 3 2 ];
f=[ 1 1 1 1 1 1 1 2 2 2 2 2 2 2 ];

e1=[ 10 10 10 10 10 10 10 10 10 10 10 10 10 10 10 10 10 10 8 8 8 8 8 8 8 8 8 8 8 8 8 8 8 8 8 8 ];
e2=[ 10 10 10 10 10 10 10 10 10 10 10 10 9 9 9 9 9 9 8 8 8 8 8 8 8 8 8 8 8 8 9 9 9 9 9 9 ];